Maximize
F - f1 - f2

Subject to
F - 20.0y20 - 15.0y269 - 20.0y238 - 10.0y77 - 10.0y209 - 5.0y287 - 10.0y196 - 15.0y185 - 5.0y154 - 5.0y125 - 10.0y60 - 10.0y78 - 5.0y225 = 0
f1 - 0.008503s20 - 0.008503s269 - 0.008503s238 - 0.008503s77 - 0.008503s209 - 0.008503s287 - 0.008503s196 - 0.008503s185 - 0.008503s154 - 0.008503s125 - 0.008503s60 - 0.008503s78 - 0.008503s225  = 0
f2 - 0.97y20 - 1.73y269 - 0.87y238 - 0.71y77 - 1.08y209 - 0.98y287 - 1.05y196 - 0.09y185 - 1.13y154 - 0.84y125 - 1.18y60 - 1.10y78 - 0.98y225 = 0

x73x77x1 + x73x196x1 + x73x154x1 + x73x125x1 + x73x78x1 
<= 1
x80x269x1 + x80x209x1 + x80x196x1 + x80x154x1 + x80x125x1 + x80x78x1 
<= 1
x109x20x2 + x109x238x2 + x109x287x2 + x109x60x2 
<= 2
x187x20x2 + x187x238x2 + x187x287x2 + x187x60x2 
<= 1
x3x20x2 + x3x238x2 + x3x287x2 + x3x60x2 
<= 1
x30x287x2 + x30x60x2 
<= 2
x80x287x2 + x80x60x2 
<= 1
x48x287x2 + x48x60x2 
<= 2
x205x209x3 + x205x185x3 + x205x154x3 + x205x125x3 + x205x60x3 + x205x225x3 
<= 1
x73x20x3 + x73x238x3 + x73x77x3 + x73x185x3 + x73x154x3 + x73x125x3 + x73x60x3 + x73x225x3 
<= 1
x2x209x3 + x2x185x3 + x2x154x3 + x2x125x3 + x2x60x3 + x2x225x3 
<= 2

x109x20x2 + x187x20x2 + x3x20x2 
- x20x0x2
- x20x238x2 
= 0
x73x20x3 
- x20x0x3
- x20x238x3 - x20x77x3 - x20x185x3 
= 0

x80x269x1 
- x269x0x1
- x269x209x1 - x269x196x1 - x269x154x1 - x269x125x1 - x269x78x1 
= 0




x109x238x2 + x187x238x2 + x3x238x2 + x20x238x2 
- x238x0x2

= 0
x73x238x3 + x20x238x3 
- x238x0x3
- x238x77x3 - x238x185x3 
= 0

x73x77x1 
- x77x0x1

= 0

x73x77x3 + x20x77x3 + x238x77x3 
- x77x0x3

= 0

x80x209x1 + x269x209x1 
- x209x0x1
- x209x196x1 - x209x154x1 - x209x125x1 - x209x78x1 
= 0

x205x209x3 + x2x209x3 
- x209x0x3
- x209x154x3 - x209x125x3 - x209x60x3 - x209x225x3 
= 0


x109x287x2 + x187x287x2 + x3x287x2 + x30x287x2 + x80x287x2 + x48x287x2 
- x287x0x2
- x287x60x2 
= 0


x73x196x1 + x80x196x1 + x269x196x1 + x209x196x1 
- x196x0x1
- x196x154x1 - x196x125x1 - x196x78x1 
= 0





x205x185x3 + x73x185x3 + x2x185x3 + x20x185x3 + x238x185x3 
- x185x0x3

= 0

x73x154x1 + x80x154x1 + x269x154x1 + x209x154x1 + x196x154x1 
- x154x0x1
- x154x78x1 
= 0

x205x154x3 + x73x154x3 + x2x154x3 + x209x154x3 
- x154x0x3
- x154x60x3 - x154x225x3 
= 0

x73x125x1 + x80x125x1 + x269x125x1 + x209x125x1 + x196x125x1 
- x125x0x1

= 0

x205x125x3 + x73x125x3 + x2x125x3 + x209x125x3 
- x125x0x3

= 0


x109x60x2 + x187x60x2 + x3x60x2 + x30x60x2 + x80x60x2 + x48x60x2 + x287x60x2 
- x60x0x2

= 0
x205x60x3 + x73x60x3 + x2x60x3 + x209x60x3 + x154x60x3 
- x60x0x3

= 0

x73x78x1 + x80x78x1 + x269x78x1 + x209x78x1 + x196x78x1 + x154x78x1 
- x78x0x1

= 0





x205x225x3 + x73x225x3 + x2x225x3 + x209x225x3 + x154x225x3 
- x225x0x3

= 0

1y20 - x109x20x2 - x187x20x2 - x3x20x2 = 0
1y20 - x73x20x3 = 0
2y269 - x80x269x1 = 0
1y238 - x109x238x2 - x187x238x2 - x3x238x2 - x20x238x2 = 0
1y238 - x73x238x3 - x20x238x3 = 0
1y77 - x73x77x1 = 0
1y77 - x73x77x3 - x20x77x3 - x238x77x3 = 0
1y209 - x80x209x1 - x269x209x1 = 0
1y209 - x205x209x3 - x2x209x3 = 0
2y287 - x109x287x2 - x187x287x2 - x3x287x2 - x30x287x2 - x80x287x2 - x48x287x2 = 0
2y196 - x73x196x1 - x80x196x1 - x269x196x1 - x209x196x1 = 0
2y185 - x205x185x3 - x73x185x3 - x2x185x3 - x20x185x3 - x238x185x3 = 0
1y154 - x73x154x1 - x80x154x1 - x269x154x1 - x209x154x1 - x196x154x1 = 0
1y154 - x205x154x3 - x73x154x3 - x2x154x3 - x209x154x3 = 0
1y125 - x73x125x1 - x80x125x1 - x269x125x1 - x209x125x1 - x196x125x1 = 0
1y125 - x205x125x3 - x73x125x3 - x2x125x3 - x209x125x3 = 0
1y60 - x109x60x2 - x187x60x2 - x3x60x2 - x30x60x2 - x80x60x2 - x48x60x2 - x287x60x2 = 0
1y60 - x205x60x3 - x73x60x3 - x2x60x3 - x209x60x3 - x154x60x3 = 0
2y78 - x73x78x1 - x80x78x1 - x269x78x1 - x209x78x1 - x196x78x1 - x154x78x1 = 0
2y225 - x205x225x3 - x73x225x3 - x2x225x3 - x209x225x3 - x154x225x3 = 0

s109 - s20 + 7.711964z109z20z2 <= 6.31
s109 - s238 + 7.727863z109z238z2 <= 6.31
s109 - s287 + 8.094213z109z287z2 <= 6.31
s109 - s60 + 8.083325z109z60z2 <= 6.31
s187 - s20 + 8.208989z187z20z2 <= 6.84
s187 - s238 + 8.217647z187z238z2 <= 6.84
s187 - s287 + 8.442240z187z287z2 <= 6.84
s187 - s60 + 8.428297z187z60z2 <= 6.84
s3 - s20 + 8.176865z3z20z2 <= 6.84
s3 - s238 + 8.185181z3z238z2 <= 6.84
s3 - s287 + 8.427311z3z287z2 <= 6.84
s3 - s60 + 8.415230z3z60z2 <= 6.84
s205 - s209 + 8.630407z205z209z3 <= 7.48
s205 - s185 + 8.816584z205z185z3 <= 7.48
s205 - s154 + 8.642344z205z154z3 <= 7.48
s205 - s125 + 8.680998z205z125z3 <= 7.48
s205 - s60 + 8.638465z205z60z3 <= 7.48
s205 - s225 + 8.664391z205z225z3 <= 7.48
s73 - s20 + 8.535901z73z20z3 <= 7.50
s73 - s238 + 8.554975z73z238z3 <= 7.50
s73 - s77 + 8.578032z73z77z1 <= 7.50
s73 - s77 + 8.578032z73z77z3 <= 7.50
s73 - s196 + 9.137251z73z196z1 <= 7.50
s73 - s185 + 8.863929z73z185z3 <= 7.50
s73 - s154 + 9.141388z73z154z1 <= 7.50
s73 - s154 + 9.141388z73z154z3 <= 7.50
s73 - s125 + 9.154896z73z125z1 <= 7.50
s73 - s125 + 9.154896z73z125z3 <= 7.50
s73 - s60 + 9.141179z73z60z3 <= 7.50
s73 - s78 + 9.146255z73z78z1 <= 7.50
s73 - s225 + 9.152245z73z225z3 <= 7.50
s30 - s287 + 8.670406z30z287z2 <= 7.52
s30 - s60 + 8.663139z30z60z2 <= 7.52
s80 - s269 + 8.695287z80z269z1 <= 7.64
s80 - s209 + 8.776286z80z209z1 <= 7.64
s80 - s287 + 8.794945z80z287z2 <= 7.64
s80 - s196 + 8.790719z80z196z1 <= 7.64
s80 - s154 + 8.787886z80z154z1 <= 7.64
s80 - s125 + 8.827455z80z125z1 <= 7.64
s80 - s60 + 8.783916z80z60z2 <= 7.64
s80 - s78 + 8.794224z80z78z1 <= 7.64
s2 - s209 + 8.769373z2z209z3 <= 7.63
s2 - s185 + 8.976918z2z185z3 <= 7.63
s2 - s154 + 8.779975z2z154z3 <= 7.63
s2 - s125 + 8.821400z2z125z3 <= 7.63
s2 - s60 + 8.775524z2z60z3 <= 7.63
s2 - s225 + 8.803324z2z225z3 <= 7.63
s48 - s287 + 8.790811z48z287z2 <= 7.62
s48 - s60 + 8.774551z48z60z2 <= 7.62
s20 - s238 + 9.730000z20z238z2 <= 8.71
s20 - s238 + 9.730000z20z238z3 <= 8.71
s20 - s77 + 9.752164z20z77z3 <= 8.71
s20 - s185 + 10.043400z20z185z3 <= 8.71
s269 - s209 + 9.889071z269z209z1 <= 8.74
s269 - s196 + 9.901245z269z196z1 <= 8.74
s269 - s154 + 9.893478z269z154z1 <= 8.74
s269 - s125 + 9.943960z269z125z1 <= 8.74
s269 - s78 + 9.900139z269z78z1 <= 8.74
s238 - s77 + 9.794038z238z77z3 <= 8.77
s238 - s185 + 10.083830z238z185z3 <= 8.77
s209 - s196 + 10.084907z209z196z1 <= 9.07
s209 - s154 + 10.091082z209z154z1 <= 9.07
s209 - s154 + 10.091082z209z154z3 <= 9.07
s209 - s125 + 10.124974z209z125z1 <= 9.07
s209 - s125 + 10.124974z209z125z3 <= 9.07
s209 - s60 + 10.096666z209z60z3 <= 9.07
s209 - s78 + 10.094037z209z78z1 <= 9.07
s209 - s225 + 10.103993z209z225z3 <= 9.07
s287 - s60 + 10.148872z287z60z2 <= 9.11
s196 - s154 + 10.154907z196z154z1 <= 9.14
s196 - s125 + 10.184722z196z125z1 <= 9.14
s196 - s78 + 10.153334z196z78z1 <= 9.14
s154 - s60 + 10.189428z154z60z3 <= 9.18
s154 - s78 + 10.186666z154z78z1 <= 9.18
s154 - s225 + 10.209814z154z225z3 <= 9.18

x109x20x2 - 1z109z20z2 <= 0
x109x238x2 - 1z109z238z2 <= 0
x109x287x2 - 2z109z287z2 <= 0
x109x60x2 - 1z109z60z2 <= 0
x187x20x2 - 1z187z20z2 <= 0
x187x238x2 - 1z187z238z2 <= 0
x187x287x2 - 2z187z287z2 <= 0
x187x60x2 - 1z187z60z2 <= 0
x3x20x2 - 1z3z20z2 <= 0
x3x238x2 - 1z3z238z2 <= 0
x3x287x2 - 2z3z287z2 <= 0
x3x60x2 - 1z3z60z2 <= 0
x205x209x3 - 1z205z209z3 <= 0
x205x185x3 - 2z205z185z3 <= 0
x205x154x3 - 1z205z154z3 <= 0
x205x125x3 - 1z205z125z3 <= 0
x205x60x3 - 1z205z60z3 <= 0
x205x225x3 - 2z205z225z3 <= 0
x73x20x3 - 1z73z20z3 <= 0
x73x238x3 - 1z73z238z3 <= 0
x73x77x1 - 1z73z77z1 <= 0
x73x77x3 - 1z73z77z3 <= 0
x73x196x1 - 2z73z196z1 <= 0
x73x185x3 - 2z73z185z3 <= 0
x73x154x1 - 1z73z154z1 <= 0
x73x154x3 - 1z73z154z3 <= 0
x73x125x1 - 1z73z125z1 <= 0
x73x125x3 - 1z73z125z3 <= 0
x73x60x3 - 1z73z60z3 <= 0
x73x78x1 - 2z73z78z1 <= 0
x73x225x3 - 2z73z225z3 <= 0
x30x287x2 - 2z30z287z2 <= 0
x30x60x2 - 1z30z60z2 <= 0
x80x269x1 - 2z80z269z1 <= 0
x80x209x1 - 1z80z209z1 <= 0
x80x287x2 - 2z80z287z2 <= 0
x80x196x1 - 2z80z196z1 <= 0
x80x154x1 - 1z80z154z1 <= 0
x80x125x1 - 1z80z125z1 <= 0
x80x60x2 - 1z80z60z2 <= 0
x80x78x1 - 2z80z78z1 <= 0
x2x209x3 - 1z2z209z3 <= 0
x2x185x3 - 2z2z185z3 <= 0
x2x154x3 - 1z2z154z3 <= 0
x2x125x3 - 1z2z125z3 <= 0
x2x60x3 - 1z2z60z3 <= 0
x2x225x3 - 2z2z225z3 <= 0
x48x287x2 - 2z48z287z2 <= 0
x48x60x2 - 1z48z60z2 <= 0
x20x238x2 - 1z20z238z2 <= 0
x20x238x3 - 1z20z238z3 <= 0
x20x77x3 - 1z20z77z3 <= 0
x20x185x3 - 2z20z185z3 <= 0
x20x0x2 <= 1
x20x0x3 <= 1
x269x209x1 - 1z269z209z1 <= 0
x269x196x1 - 2z269z196z1 <= 0
x269x154x1 - 1z269z154z1 <= 0
x269x125x1 - 1z269z125z1 <= 0
x269x78x1 - 2z269z78z1 <= 0
x269x0x1 <= 2
x238x77x3 - 1z238z77z3 <= 0
x238x185x3 - 2z238z185z3 <= 0
x238x0x2 <= 1
x238x0x3 <= 1
x77x0x1 <= 1
x77x0x3 <= 1
x209x196x1 - 2z209z196z1 <= 0
x209x154x1 - 1z209z154z1 <= 0
x209x154x3 - 1z209z154z3 <= 0
x209x125x1 - 1z209z125z1 <= 0
x209x125x3 - 1z209z125z3 <= 0
x209x60x3 - 1z209z60z3 <= 0
x209x78x1 - 2z209z78z1 <= 0
x209x225x3 - 2z209z225z3 <= 0
x209x0x1 <= 1
x209x0x3 <= 1
x287x60x2 - 1z287z60z2 <= 0
x287x0x2 <= 2
x196x154x1 - 1z196z154z1 <= 0
x196x125x1 - 1z196z125z1 <= 0
x196x78x1 - 2z196z78z1 <= 0
x196x0x1 <= 2
x185x0x3 <= 2
x154x60x3 - 1z154z60z3 <= 0
x154x78x1 - 2z154z78z1 <= 0
x154x225x3 - 2z154z225z3 <= 0
x154x0x1 <= 1
x154x0x3 <= 1
x125x0x1 <= 1
x125x0x3 <= 1
x60x0x2 <= 1
x60x0x3 <= 1
x78x0x1 <= 2
x225x0x3 <= 2

s20 - 6.00z109z20z2 >= 0
s20 - 6.00z187z20z2 >= 0
s20 - 6.00z3z20z2 >= 0
s20 - 6.00z73z20z3 >= 0
s269 - 6.00z80z269z1 >= 0
s238 - 6.00z109z238z2 >= 0
s238 - 6.00z187z238z2 >= 0
s238 - 6.00z3z238z2 >= 0
s238 - 6.00z73z238z3 >= 0
s238 - 6.00z20z238z2 >= 0
s238 - 6.00z20z238z3 >= 0
s77 - 6.00z73z77z1 >= 0
s77 - 6.00z73z77z3 >= 0
s77 - 6.00z20z77z3 >= 0
s77 - 6.00z238z77z3 >= 0
s209 - 6.00z205z209z3 >= 0
s209 - 6.00z80z209z1 >= 0
s209 - 6.00z2z209z3 >= 0
s209 - 6.00z269z209z1 >= 0
s287 - 6.00z109z287z2 >= 0
s287 - 6.00z187z287z2 >= 0
s287 - 6.00z3z287z2 >= 0
s287 - 6.00z30z287z2 >= 0
s287 - 6.00z80z287z2 >= 0
s287 - 6.00z48z287z2 >= 0
s196 - 6.00z73z196z1 >= 0
s196 - 6.00z80z196z1 >= 0
s196 - 6.00z269z196z1 >= 0
s196 - 6.00z209z196z1 >= 0
s185 - 6.00z205z185z3 >= 0
s185 - 6.00z73z185z3 >= 0
s185 - 6.00z2z185z3 >= 0
s185 - 6.00z20z185z3 >= 0
s185 - 6.00z238z185z3 >= 0
s154 - 6.00z205z154z3 >= 0
s154 - 6.00z73z154z1 >= 0
s154 - 6.00z73z154z3 >= 0
s154 - 6.00z80z154z1 >= 0
s154 - 6.00z2z154z3 >= 0
s154 - 6.00z269z154z1 >= 0
s154 - 6.00z209z154z1 >= 0
s154 - 6.00z209z154z3 >= 0
s154 - 6.00z196z154z1 >= 0
s125 - 6.00z205z125z3 >= 0
s125 - 6.00z73z125z1 >= 0
s125 - 6.00z73z125z3 >= 0
s125 - 6.00z80z125z1 >= 0
s125 - 6.00z2z125z3 >= 0
s125 - 6.00z269z125z1 >= 0
s125 - 6.00z209z125z1 >= 0
s125 - 6.00z209z125z3 >= 0
s125 - 6.00z196z125z1 >= 0
s60 - 6.00z109z60z2 >= 0
s60 - 6.00z187z60z2 >= 0
s60 - 6.00z3z60z2 >= 0
s60 - 6.00z205z60z3 >= 0
s60 - 6.00z73z60z3 >= 0
s60 - 6.00z30z60z2 >= 0
s60 - 6.00z80z60z2 >= 0
s60 - 6.00z2z60z3 >= 0
s60 - 6.00z48z60z2 >= 0
s60 - 6.00z209z60z3 >= 0
s60 - 6.00z287z60z2 >= 0
s60 - 6.00z154z60z3 >= 0
s78 - 6.00z73z78z1 >= 0
s78 - 6.00z80z78z1 >= 0
s78 - 6.00z269z78z1 >= 0
s78 - 6.00z209z78z1 >= 0
s78 - 6.00z196z78z1 >= 0
s78 - 6.00z154z78z1 >= 0
s225 - 6.00z205z225z3 >= 0
s225 - 6.00z73z225z3 >= 0
s225 - 6.00z2z225z3 >= 0
s225 - 6.00z209z225z3 >= 0
s225 - 6.00z154z225z3 >= 0

Bounds
s109 = 6.313188
s187 = 6.836013
s3 = 6.836342
s205 = 7.480000
s73 = 7.500000
s181 = 8.185298
s177 = 8.473333
s30 = 7.520000
s239 = 7.930388
s80 = 7.640312
s2 = 7.627951
s55 = 8.506666
s48 = 7.624144
s229 = 8.450370
s64 = 8.440772
7.710000 <= s20 <= 8.710000
7.740000 <= s269 <= 8.740000
7.770000 <= s238 <= 8.770000
7.940000 <= s77 <= 8.940000
8.070000 <= s209 <= 9.070000
8.110000 <= s287 <= 9.110000
8.140000 <= s196 <= 9.140000
8.150000 <= s185 <= 9.150000
8.180000 <= s154 <= 9.180000
8.190000 <= s125 <= 9.190000
8.200000 <= s60 <= 9.200000
8.200000 <= s78 <= 9.200000
8.210000 <= s225 <= 9.210000

General
x109x20x2 x109x238x2 x109x287x2 x109x60x2 
x187x20x2 x187x238x2 x187x287x2 x187x60x2 
x3x20x2 x3x238x2 x3x287x2 x3x60x2 
x205x209x3 x205x185x3 x205x154x3 x205x125x3 x205x60x3 x205x225x3 
x73x20x3 x73x238x3 x73x77x1 x73x77x3 x73x196x1 x73x185x3 x73x154x1 x73x154x3 x73x125x1 x73x125x3 x73x60x3 x73x78x1 x73x225x3 


x30x287x2 x30x60x2 

x80x269x1 x80x209x1 x80x287x2 x80x196x1 x80x154x1 x80x125x1 x80x60x2 x80x78x1 
x2x209x3 x2x185x3 x2x154x3 x2x125x3 x2x60x3 x2x225x3 

x48x287x2 x48x60x2 


x20x238x2 x20x238x3 x20x77x3 x20x185x3 x20x0x2 x20x0x3 
x269x209x1 x269x196x1 x269x154x1 x269x125x1 x269x78x1 x269x0x1 
x238x77x3 x238x185x3 x238x0x2 x238x0x3 
x77x0x1 x77x0x3 
x209x196x1 x209x154x1 x209x154x3 x209x125x1 x209x125x3 x209x60x3 x209x78x1 x209x225x3 x209x0x1 x209x0x3 
x287x60x2 x287x0x2 
x196x154x1 x196x125x1 x196x78x1 x196x0x1 
x185x0x3 
x154x60x3 x154x78x1 x154x225x3 x154x0x1 x154x0x3 
x125x0x1 x125x0x3 
x60x0x2 x60x0x3 
x78x0x1 
x225x0x3 

Binaries
y20 y269 y238 y77 y209 y287 y196 y185 y154 y125 y60 y78 y225 
z109z20z2 z109z238z2 z109z287z2 z109z60z2 
z187z20z2 z187z238z2 z187z287z2 z187z60z2 
z3z20z2 z3z238z2 z3z287z2 z3z60z2 
z205z209z3 z205z185z3 z205z154z3 z205z125z3 z205z60z3 z205z225z3 
z73z20z3 z73z238z3 z73z77z1 z73z77z3 z73z196z1 z73z185z3 z73z154z1 z73z154z3 z73z125z1 z73z125z3 z73z60z3 z73z78z1 z73z225z3 


z30z287z2 z30z60z2 

z80z269z1 z80z209z1 z80z287z2 z80z196z1 z80z154z1 z80z125z1 z80z60z2 z80z78z1 
z2z209z3 z2z185z3 z2z154z3 z2z125z3 z2z60z3 z2z225z3 

z48z287z2 z48z60z2 


z20z238z2 z20z238z3 z20z77z3 z20z185z3 
z269z209z1 z269z196z1 z269z154z1 z269z125z1 z269z78z1 
z238z77z3 z238z185z3 

z209z196z1 z209z154z1 z209z154z3 z209z125z1 z209z125z3 z209z60z3 z209z78z1 z209z225z3 
z287z60z2 
z196z154z1 z196z125z1 z196z78z1 

z154z60z3 z154z78z1 z154z225z3 





End